ciphers.rabin_miller/64_sat.smt2
(set-logic ALL)
(declare-const num_VAR Int)
(assert (= (mod (- num_VAR 1) 2) 0))
(assert (= (mod (div (- num_VAR 1) 2) 2) 0))
(assert (= (mod (div (div (- num_VAR 1) 2) 2) 2) 0))
(assert (= (mod (div (div (div (- num_VAR 1) 2) 2) 2) 2) 0))
(assert (= (mod (div (div (div (div (- num_VAR 1) 2) 2) 2) 2) 2) 0))
(assert (= (mod (div (div (div (div (div (- num_VAR 1) 2) 2) 2) 2) 2) 2) 0))
(assert (= (mod (div (div (div (div (div (div (- num_VAR 1) 2) 2) 2) 2) 2) 2) 2) 0))
(assert (= (mod (div (div (div (div (div (div (div (- num_VAR 1) 2) 2) 2) 2) 2) 2) 2) 2) 0))
(assert (= (mod (div (div (div (div (div (div (div (div (- num_VAR 1) 2) 2) 2) 2) 2) 2) 2) 2) 2) 0))
(assert (= (mod (div (div (div (div (div (div (div (div (div (- num_VAR 1) 2) 2) 2) 2) 2) 2) 2) 2) 2) 2) 0))
(assert (= (mod (div (div (div (div (div (div (div (div (div (div (- num_VAR 1) 2) 2) 2) 2) 2) 2) 2) 2) 2) 2) 2) 0))
(assert (= (mod (div (div (div (div (div (div (div (div (div (div (div (- num_VAR 1) 2) 2) 2) 2) 2) 2) 2) 2) 2) 2) 2) 2) 0))
(assert (= (mod (div (div (div (div (div (div (div (div (div (div (div (div (- num_VAR 1) 2) 2) 2) 2) 2) 2) 2) 2) 2) 2) 2) 2) 2) 0))
(assert (= (mod (div (div (div (div (div (div (div (div (div (div (div (div (div (- num_VAR 1) 2) 2) 2) 2) 2) 2) 2) 2) 2) 2) 2) 2) 2) 2) 0))
(assert (= (mod (div (div (div (div (div (div (div (div (div (div (div (div (div (div (- num_VAR 1) 2) 2) 2) 2) 2) 2) 2) 2) 2) 2) 2) 2) 2) 2) 2) 0))
(assert (= (mod (div (div (div (div (div (div (div (div (div (div (div (div (div (div (div (- num_VAR 1) 2) 2) 2) 2) 2) 2) 2) 2) 2) 2) 2) 2) 2) 2) 2) 2) 0))
(assert (= (mod (div (div (div (div (div (div (div (div (div (div (div (div (div (div (div (div (- num_VAR 1) 2) 2) 2) 2) 2) 2) 2) 2) 2) 2) 2) 2) 2) 2) 2) 2) 2) 0))
(assert (= (mod (div (div (div (div (div (div (div (div (div (div (div (div (div (div (div (div (div (- num_VAR 1) 2) 2) 2) 2) 2) 2) 2) 2) 2) 2) 2) 2) 2) 2) 2) 2) 2) 2) 0))
(assert (= (mod (div (div (div (div (div (div (div (div (div (div (div (div (div (div (div (div (div (div (- num_VAR 1) 2) 2) 2) 2) 2) 2) 2) 2) 2) 2) 2) 2) 2) 2) 2) 2) 2) 2) 2) 0))
(assert (= (mod (div (div (div (div (div (div (div (div (div (div (div (div (div (div (div (div (div (div (div (- num_VAR 1) 2) 2) 2) 2) 2) 2) 2) 2) 2) 2) 2) 2) 2) 2) 2) 2) 2) 2) 2) 2) 0))
(assert (= (mod (div (div (div (div (div (div (div (div (div (div (div (div (div (div (div (div (div (div (div (div (- num_VAR 1) 2) 2) 2) 2) 2) 2) 2) 2) 2) 2) 2) 2) 2) 2) 2) 2) 2) 2) 2) 2) 2) 0))
(assert (= (mod (div (div (div (div (div (div (div (div (div (div (div (div (div (div (div (div (div (div (div (div (div (- num_VAR 1) 2) 2) 2) 2) 2) 2) 2) 2) 2) 2) 2) 2) 2) 2) 2) 2) 2) 2) 2) 2) 2) 2) 0))
(assert (= (mod (div (div (div (div (div (div (div (div (div (div (div (div (div (div (div (div (div (div (div (div (div (div (- num_VAR 1) 2) 2) 2) 2) 2) 2) 2) 2) 2) 2) 2) 2) 2) 2) 2) 2) 2) 2) 2) 2) 2) 2) 2) 0))
(assert (= (mod (div (div (div (div (div (div (div (div (div (div (div (div (div (div (div (div (div (div (div (div (div (div (div (- num_VAR 1) 2) 2) 2) 2) 2) 2) 2) 2) 2) 2) 2) 2) 2) 2) 2) 2) 2) 2) 2) 2) 2) 2) 2) 2) 0))
(assert (= (mod (div (div (div (div (div (div (div (div (div (div (div (div (div (div (div (div (div (div (div (div (div (div (div (div (- num_VAR 1) 2) 2) 2) 2) 2) 2) 2) 2) 2) 2) 2) 2) 2) 2) 2) 2) 2) 2) 2) 2) 2) 2) 2) 2) 2) 0))
(assert (= (mod (div (div (div (div (div (div (div (div (div (div (div (div (div (div (div (div (div (div (div (div (div (div (div (div (div (- num_VAR 1) 2) 2) 2) 2) 2) 2) 2) 2) 2) 2) 2) 2) 2) 2) 2) 2) 2) 2) 2) 2) 2) 2) 2) 2) 2) 2) 0))
(assert (= (mod (div (div (div (div (div (div (div (div (div (div (div (div (div (div (div (div (div (div (div (div (div (div (div (div (div (div (- num_VAR 1) 2) 2) 2) 2) 2) 2) 2) 2) 2) 2) 2) 2) 2) 2) 2) 2) 2) 2) 2) 2) 2) 2) 2) 2) 2) 2) 2) 0))
(assert (= (mod (div (div (div (div (div (div (div (div (div (div (div (div (div (div (div (div (div (div (div (div (div (div (div (div (div (div (div (- num_VAR 1) 2) 2) 2) 2) 2) 2) 2) 2) 2) 2) 2) 2) 2) 2) 2) 2) 2) 2) 2) 2) 2) 2) 2) 2) 2) 2) 2) 2) 0))
(assert (= (mod (div (div (div (div (div (div (div (div (div (div (div (div (div (div (div (div (div (div (div (div (div (div (div (div (div (div (div (div (- num_VAR 1) 2) 2) 2) 2) 2) 2) 2) 2) 2) 2) 2) 2) 2) 2) 2) 2) 2) 2) 2) 2) 2) 2) 2) 2) 2) 2) 2) 2) 2) 0))
(assert (= (mod (div (div (div (div (div (div (div (div (div (div (div (div (div (div (div (div (div (div (div (div (div (div (div (div (div (div (div (div (div (- num_VAR 1) 2) 2) 2) 2) 2) 2) 2) 2) 2) 2) 2) 2) 2) 2) 2) 2) 2) 2) 2) 2) 2) 2) 2) 2) 2) 2) 2) 2) 2) 2) 0))
(assert (= (mod (div (div (div (div (div (div (div (div (div (div (div (div (div (div (div (div (div (div (div (div (div (div (div (div (div (div (div (div (div (div (- num_VAR 1) 2) 2) 2) 2) 2) 2) 2) 2) 2) 2) 2) 2) 2) 2) 2) 2) 2) 2) 2) 2) 2) 2) 2) 2) 2) 2) 2) 2) 2) 2) 2) 0))
(assert (= (mod (div (div (div (div (div (div (div (div (div (div (div (div (div (div (div (div (div (div (div (div (div (div (div (div (div (div (div (div (div (div (div (- num_VAR 1) 2) 2) 2) 2) 2) 2) 2) 2) 2) 2) 2) 2) 2) 2) 2) 2) 2) 2) 2) 2) 2) 2) 2) 2) 2) 2) 2) 2) 2) 2) 2) 2) 0))
(assert (= (mod (div (div (div (div (div (div (div (div (div (div (div (div (div (div (div (div (div (div (div (div (div (div (div (div (div (div (div (div (div (div (div (div (- num_VAR 1) 2) 2) 2) 2) 2) 2) 2) 2) 2) 2) 2) 2) 2) 2) 2) 2) 2) 2) 2) 2) 2) 2) 2) 2) 2) 2) 2) 2) 2) 2) 2) 2) 2) 0))
(assert (= (mod (div (div (div (div (div (div (div (div (div (div (div (div (div (div (div (div (div (div (div (div (div (div (div (div (div (div (div (div (div (div (div (div (div (- num_VAR 1) 2) 2) 2) 2) 2) 2) 2) 2) 2) 2) 2) 2) 2) 2) 2) 2) 2) 2) 2) 2) 2) 2) 2) 2) 2) 2) 2) 2) 2) 2) 2) 2) 2) 2) 0))
(assert (= (mod (div (div (div (div (div (div (div (div (div (div (div (div (div (div (div (div (div (div (div (div (div (div (div (div (div (div (div (div (div (div (div (div (div (div (- num_VAR 1) 2) 2) 2) 2) 2) 2) 2) 2) 2) 2) 2) 2) 2) 2) 2) 2) 2) 2) 2) 2) 2) 2) 2) 2) 2) 2) 2) 2) 2) 2) 2) 2) 2) 2) 2) 0))
(assert (= (mod (div (div (div (div (div (div (div (div (div (div (div (div (div (div (div (div (div (div (div (div (div (div (div (div (div (div (div (div (div (div (div (div (div (div (div (- num_VAR 1) 2) 2) 2) 2) 2) 2) 2) 2) 2) 2) 2) 2) 2) 2) 2) 2) 2) 2) 2) 2) 2) 2) 2) 2) 2) 2) 2) 2) 2) 2) 2) 2) 2) 2) 2) 2) 0))
(assert (= (mod (div (div (div (div (div (div (div (div (div (div (div (div (div (div (div (div (div (div (div (div (div (div (div (div (div (div (div (div (div (div (div (div (div (div (div (div (- num_VAR 1) 2) 2) 2) 2) 2) 2) 2) 2) 2) 2) 2) 2) 2) 2) 2) 2) 2) 2) 2) 2) 2) 2) 2) 2) 2) 2) 2) 2) 2) 2) 2) 2) 2) 2) 2) 2) 2) 0))
(assert (= (mod (div (div (div (div (div (div (div (div (div (div (div (div (div (div (div (div (div (div (div (div (div (div (div (div (div (div (div (div (div (div (div (div (div (div (div (div (div (- num_VAR 1) 2) 2) 2) 2) 2) 2) 2) 2) 2) 2) 2) 2) 2) 2) 2) 2) 2) 2) 2) 2) 2) 2) 2) 2) 2) 2) 2) 2) 2) 2) 2) 2) 2) 2) 2) 2) 2) 2) 0))
(assert (= (mod (div (div (div (div (div (div (div (div (div (div (div (div (div (div (div (div (div (div (div (div (div (div (div (div (div (div (div (div (div (div (div (div (div (div (div (div (div (div (- num_VAR 1) 2) 2) 2) 2) 2) 2) 2) 2) 2) 2) 2) 2) 2) 2) 2) 2) 2) 2) 2) 2) 2) 2) 2) 2) 2) 2) 2) 2) 2) 2) 2) 2) 2) 2) 2) 2) 2) 2) 2) 0))
(assert (= (mod (div (div (div (div (div (div (div (div (div (div (div (div (div (div (div (div (div (div (div (div (div (div (div (div (div (div (div (div (div (div (div (div (div (div (div (div (div (div (div (- num_VAR 1) 2) 2) 2) 2) 2) 2) 2) 2) 2) 2) 2) 2) 2) 2) 2) 2) 2) 2) 2) 2) 2) 2) 2) 2) 2) 2) 2) 2) 2) 2) 2) 2) 2) 2) 2) 2) 2) 2) 2) 2) 0))
(assert (= (mod (div (div (div (div (div (div (div (div (div (div (div (div (div (div (div (div (div (div (div (div (div (div (div (div (div (div (div (div (div (div (div (div (div (div (div (div (div (div (div (div (- num_VAR 1) 2) 2) 2) 2) 2) 2) 2) 2) 2) 2) 2) 2) 2) 2) 2) 2) 2) 2) 2) 2) 2) 2) 2) 2) 2) 2) 2) 2) 2) 2) 2) 2) 2) 2) 2) 2) 2) 2) 2) 2) 2) 0))
(assert (= (mod (div (div (div (div (div (div (div (div (div (div (div (div (div (div (div (div (div (div (div (div (div (div (div (div (div (div (div (div (div (div (div (div (div (div (div (div (div (div (div (div (div (- num_VAR 1) 2) 2) 2) 2) 2) 2) 2) 2) 2) 2) 2) 2) 2) 2) 2) 2) 2) 2) 2) 2) 2) 2) 2) 2) 2) 2) 2) 2) 2) 2) 2) 2) 2) 2) 2) 2) 2) 2) 2) 2) 2) 2) 0))
(assert (= (mod (div (div (div (div (div (div (div (div (div (div (div (div (div (div (div (div (div (div (div (div (div (div (div (div (div (div (div (div (div (div (div (div (div (div (div (div (div (div (div (div (div (div (- num_VAR 1) 2) 2) 2) 2) 2) 2) 2) 2) 2) 2) 2) 2) 2) 2) 2) 2) 2) 2) 2) 2) 2) 2) 2) 2) 2) 2) 2) 2) 2) 2) 2) 2) 2) 2) 2) 2) 2) 2) 2) 2) 2) 2) 2) 0))
(assert (= (mod (div (div (div (div (div (div (div (div (div (div (div (div (div (div (div (div (div (div (div (div (div (div (div (div (div (div (div (div (div (div (div (div (div (div (div (div (div (div (div (div (div (div (div (- num_VAR 1) 2) 2) 2) 2) 2) 2) 2) 2) 2) 2) 2) 2) 2) 2) 2) 2) 2) 2) 2) 2) 2) 2) 2) 2) 2) 2) 2) 2) 2) 2) 2) 2) 2) 2) 2) 2) 2) 2) 2) 2) 2) 2) 2) 2) 0))
(assert (= (mod (div (div (div (div (div (div (div (div (div (div (div (div (div (div (div (div (div (div (div (div (div (div (div (div (div (div (div (div (div (div (div (div (div (div (div (div (div (div (div (div (div (div (div (div (- num_VAR 1) 2) 2) 2) 2) 2) 2) 2) 2) 2) 2) 2) 2) 2) 2) 2) 2) 2) 2) 2) 2) 2) 2) 2) 2) 2) 2) 2) 2) 2) 2) 2) 2) 2) 2) 2) 2) 2) 2) 2) 2) 2) 2) 2) 2) 2) 0))
(assert (= (mod (div (div (div (div (div (div (div (div (div (div (div (div (div (div (div (div (div (div (div (div (div (div (div (div (div (div (div (div (div (div (div (div (div (div (div (div (div (div (div (div (div (div (div (div (div (- num_VAR 1) 2) 2) 2) 2) 2) 2) 2) 2) 2) 2) 2) 2) 2) 2) 2) 2) 2) 2) 2) 2) 2) 2) 2) 2) 2) 2) 2) 2) 2) 2) 2) 2) 2) 2) 2) 2) 2) 2) 2) 2) 2) 2) 2) 2) 2) 2) 0))
(assert (= (mod (div (div (div (div (div (div (div (div (div (div (div (div (div (div (div (div (div (div (div (div (div (div (div (div (div (div (div (div (div (div (div (div (div (div (div (div (div (div (div (div (div (div (div (div (div (div (- num_VAR 1) 2) 2) 2) 2) 2) 2) 2) 2) 2) 2) 2) 2) 2) 2) 2) 2) 2) 2) 2) 2) 2) 2) 2) 2) 2) 2) 2) 2) 2) 2) 2) 2) 2) 2) 2) 2) 2) 2) 2) 2) 2) 2) 2) 2) 2) 2) 2) 0))
(assert (= (mod (div (div (div (div (div (div (div (div (div (div (div (div (div (div (div (div (div (div (div (div (div (div (div (div (div (div (div (div (div (div (div (div (div (div (div (div (div (div (div (div (div (div (div (div (div (div (div (- num_VAR 1) 2) 2) 2) 2) 2) 2) 2) 2) 2) 2) 2) 2) 2) 2) 2) 2) 2) 2) 2) 2) 2) 2) 2) 2) 2) 2) 2) 2) 2) 2) 2) 2) 2) 2) 2) 2) 2) 2) 2) 2) 2) 2) 2) 2) 2) 2) 2) 2) 0))
(assert (= (mod (div (div (div (div (div (div (div (div (div (div (div (div (div (div (div (div (div (div (div (div (div (div (div (div (div (div (div (div (div (div (div (div (div (div (div (div (div (div (div (div (div (div (div (div (div (div (div (div (- num_VAR 1) 2) 2) 2) 2) 2) 2) 2) 2) 2) 2) 2) 2) 2) 2) 2) 2) 2) 2) 2) 2) 2) 2) 2) 2) 2) 2) 2) 2) 2) 2) 2) 2) 2) 2) 2) 2) 2) 2) 2) 2) 2) 2) 2) 2) 2) 2) 2) 2) 2) 0))
(assert (= (mod (div (div (div (div (div (div (div (div (div (div (div (div (div (div (div (div (div (div (div (div (div (div (div (div (div (div (div (div (div (div (div (div (div (div (div (div (div (div (div (div (div (div (div (div (div (div (div (div (div (- num_VAR 1) 2) 2) 2) 2) 2) 2) 2) 2) 2) 2) 2) 2) 2) 2) 2) 2) 2) 2) 2) 2) 2) 2) 2) 2) 2) 2) 2) 2) 2) 2) 2) 2) 2) 2) 2) 2) 2) 2) 2) 2) 2) 2) 2) 2) 2) 2) 2) 2) 2) 2) 0))
(assert (= (mod (div (div (div (div (div (div (div (div (div (div (div (div (div (div (div (div (div (div (div (div (div (div (div (div (div (div (div (div (div (div (div (div (div (div (div (div (div (div (div (div (div (div (div (div (div (div (div (div (div (div (- num_VAR 1) 2) 2) 2) 2) 2) 2) 2) 2) 2) 2) 2) 2) 2) 2) 2) 2) 2) 2) 2) 2) 2) 2) 2) 2) 2) 2) 2) 2) 2) 2) 2) 2) 2) 2) 2) 2) 2) 2) 2) 2) 2) 2) 2) 2) 2) 2) 2) 2) 2) 2) 2) 0))
(assert (= (mod (div (div (div (div (div (div (div (div (div (div (div (div (div (div (div (div (div (div (div (div (div (div (div (div (div (div (div (div (div (div (div (div (div (div (div (div (div (div (div (div (div (div (div (div (div (div (div (div (div (div (div (- num_VAR 1) 2) 2) 2) 2) 2) 2) 2) 2) 2) 2) 2) 2) 2) 2) 2) 2) 2) 2) 2) 2) 2) 2) 2) 2) 2) 2) 2) 2) 2) 2) 2) 2) 2) 2) 2) 2) 2) 2) 2) 2) 2) 2) 2) 2) 2) 2) 2) 2) 2) 2) 2) 2) 0))
(assert (= (mod (div (div (div (div (div (div (div (div (div (div (div (div (div (div (div (div (div (div (div (div (div (div (div (div (div (div (div (div (div (div (div (div (div (div (div (div (div (div (div (div (div (div (div (div (div (div (div (div (div (div (div (div (- num_VAR 1) 2) 2) 2) 2) 2) 2) 2) 2) 2) 2) 2) 2) 2) 2) 2) 2) 2) 2) 2) 2) 2) 2) 2) 2) 2) 2) 2) 2) 2) 2) 2) 2) 2) 2) 2) 2) 2) 2) 2) 2) 2) 2) 2) 2) 2) 2) 2) 2) 2) 2) 2) 2) 2) 0))
(assert (= (mod (div (div (div (div (div (div (div (div (div (div (div (div (div (div (div (div (div (div (div (div (div (div (div (div (div (div (div (div (div (div (div (div (div (div (div (div (div (div (div (div (div (div (div (div (div (div (div (div (div (div (div (div (div (- num_VAR 1) 2) 2) 2) 2) 2) 2) 2) 2) 2) 2) 2) 2) 2) 2) 2) 2) 2) 2) 2) 2) 2) 2) 2) 2) 2) 2) 2) 2) 2) 2) 2) 2) 2) 2) 2) 2) 2) 2) 2) 2) 2) 2) 2) 2) 2) 2) 2) 2) 2) 2) 2) 2) 2) 2) 0))
(assert (= (mod (div (div (div (div (div (div (div (div (div (div (div (div (div (div (div (div (div (div (div (div (div (div (div (div (div (div (div (div (div (div (div (div (div (div (div (div (div (div (div (div (div (div (div (div (div (div (div (div (div (div (div (div (div (div (- num_VAR 1) 2) 2) 2) 2) 2) 2) 2) 2) 2) 2) 2) 2) 2) 2) 2) 2) 2) 2) 2) 2) 2) 2) 2) 2) 2) 2) 2) 2) 2) 2) 2) 2) 2) 2) 2) 2) 2) 2) 2) 2) 2) 2) 2) 2) 2) 2) 2) 2) 2) 2) 2) 2) 2) 2) 2) 0))
(assert (= (mod (div (div (div (div (div (div (div (div (div (div (div (div (div (div (div (div (div (div (div (div (div (div (div (div (div (div (div (div (div (div (div (div (div (div (div (div (div (div (div (div (div (div (div (div (div (div (div (div (div (div (div (div (div (div (div (- num_VAR 1) 2) 2) 2) 2) 2) 2) 2) 2) 2) 2) 2) 2) 2) 2) 2) 2) 2) 2) 2) 2) 2) 2) 2) 2) 2) 2) 2) 2) 2) 2) 2) 2) 2) 2) 2) 2) 2) 2) 2) 2) 2) 2) 2) 2) 2) 2) 2) 2) 2) 2) 2) 2) 2) 2) 2) 2) 0))
(assert (= (mod (div (div (div (div (div (div (div (div (div (div (div (div (div (div (div (div (div (div (div (div (div (div (div (div (div (div (div (div (div (div (div (div (div (div (div (div (div (div (div (div (div (div (div (div (div (div (div (div (div (div (div (div (div (div (div (div (- num_VAR 1) 2) 2) 2) 2) 2) 2) 2) 2) 2) 2) 2) 2) 2) 2) 2) 2) 2) 2) 2) 2) 2) 2) 2) 2) 2) 2) 2) 2) 2) 2) 2) 2) 2) 2) 2) 2) 2) 2) 2) 2) 2) 2) 2) 2) 2) 2) 2) 2) 2) 2) 2) 2) 2) 2) 2) 2) 2) 0))
(assert (= (mod (div (div (div (div (div (div (div (div (div (div (div (div (div (div (div (div (div (div (div (div (div (div (div (div (div (div (div (div (div (div (div (div (div (div (div (div (div (div (div (div (div (div (div (div (div (div (div (div (div (div (div (div (div (div (div (div (div (- num_VAR 1) 2) 2) 2) 2) 2) 2) 2) 2) 2) 2) 2) 2) 2) 2) 2) 2) 2) 2) 2) 2) 2) 2) 2) 2) 2) 2) 2) 2) 2) 2) 2) 2) 2) 2) 2) 2) 2) 2) 2) 2) 2) 2) 2) 2) 2) 2) 2) 2) 2) 2) 2) 2) 2) 2) 2) 2) 2) 2) 0))
(assert (= (mod (div (div (div (div (div (div (div (div (div (div (div (div (div (div (div (div (div (div (div (div (div (div (div (div (div (div (div (div (div (div (div (div (div (div (div (div (div (div (div (div (div (div (div (div (div (div (div (div (div (div (div (div (div (div (div (div (div (div (- num_VAR 1) 2) 2) 2) 2) 2) 2) 2) 2) 2) 2) 2) 2) 2) 2) 2) 2) 2) 2) 2) 2) 2) 2) 2) 2) 2) 2) 2) 2) 2) 2) 2) 2) 2) 2) 2) 2) 2) 2) 2) 2) 2) 2) 2) 2) 2) 2) 2) 2) 2) 2) 2) 2) 2) 2) 2) 2) 2) 2) 2) 0))
(assert (= (mod (div (div (div (div (div (div (div (div (div (div (div (div (div (div (div (div (div (div (div (div (div (div (div (div (div (div (div (div (div (div (div (div (div (div (div (div (div (div (div (div (div (div (div (div (div (div (div (div (div (div (div (div (div (div (div (div (div (div (div (- num_VAR 1) 2) 2) 2) 2) 2) 2) 2) 2) 2) 2) 2) 2) 2) 2) 2) 2) 2) 2) 2) 2) 2) 2) 2) 2) 2) 2) 2) 2) 2) 2) 2) 2) 2) 2) 2) 2) 2) 2) 2) 2) 2) 2) 2) 2) 2) 2) 2) 2) 2) 2) 2) 2) 2) 2) 2) 2) 2) 2) 2) 2) 0))
(assert (= (mod (div (div (div (div (div (div (div (div (div (div (div (div (div (div (div (div (div (div (div (div (div (div (div (div (div (div (div (div (div (div (div (div (div (div (div (div (div (div (div (div (div (div (div (div (div (div (div (div (div (div (div (div (div (div (div (div (div (div (div (div (- num_VAR 1) 2) 2) 2) 2) 2) 2) 2) 2) 2) 2) 2) 2) 2) 2) 2) 2) 2) 2) 2) 2) 2) 2) 2) 2) 2) 2) 2) 2) 2) 2) 2) 2) 2) 2) 2) 2) 2) 2) 2) 2) 2) 2) 2) 2) 2) 2) 2) 2) 2) 2) 2) 2) 2) 2) 2) 2) 2) 2) 2) 2) 2) 0))
(assert (= (mod (div (div (div (div (div (div (div (div (div (div (div (div (div (div (div (div (div (div (div (div (div (div (div (div (div (div (div (div (div (div (div (div (div (div (div (div (div (div (div (div (div (div (div (div (div (div (div (div (div (div (div (div (div (div (div (div (div (div (div (div (div (- num_VAR 1) 2) 2) 2) 2) 2) 2) 2) 2) 2) 2) 2) 2) 2) 2) 2) 2) 2) 2) 2) 2) 2) 2) 2) 2) 2) 2) 2) 2) 2) 2) 2) 2) 2) 2) 2) 2) 2) 2) 2) 2) 2) 2) 2) 2) 2) 2) 2) 2) 2) 2) 2) 2) 2) 2) 2) 2) 2) 2) 2) 2) 2) 2) 0))
(assert (not (= (mod (div (div (div (div (div (div (div (div (div (div (div (div (div (div (div (div (div (div (div (div (div (div (div (div (div (div (div (div (div (div (div (div (div (div (div (div (div (div (div (div (div (div (div (div (div (div (div (div (div (div (div (div (div (div (div (div (div (div (div (div (div (div (- num_VAR 1) 2) 2) 2) 2) 2) 2) 2) 2) 2) 2) 2) 2) 2) 2) 2) 2) 2) 2) 2) 2) 2) 2) 2) 2) 2) 2) 2) 2) 2) 2) 2) 2) 2) 2) 2) 2) 2) 2) 2) 2) 2) 2) 2) 2) 2) 2) 2) 2) 2) 2) 2) 2) 2) 2) 2) 2) 2) 2) 2) 2) 2) 2) 2) 0)))
(check-sat)
(get-value (num_VAR))
